(set-logic HORN)
(declare-fun !inv0 (Int (Array Int Int) Int ) Bool)
(assert (forall ((N@0 Int)(A@0 (Array Int Int))(i@1 Int)) (=> (and (> |N@0| 0) (= |i@1| 0)) (!inv0 |N@0| |A@0| |i@1|))))
(assert (forall ((N@0 Int)(A@1 (Array Int Int))(A@0 (Array Int Int))(i@0 Int)(i@1 Int)) (=> (and (!inv0 |N@0| |A@0| |i@0|) (< |i@0| (/ |N@0| 2)) (= |A@1| (store |A@0| |i@0| (select |A@0| (- (- |N@0| |i@0|) 1)))) (= |i@1| (+ |i@0| 1))) (!inv0 |N@0| |A@1| |i@1|))))
(assert (forall ((N@0 Int)(A@0 (Array Int Int))(i@0 Int)) (=> (and (!inv0 |N@0| |A@0| |i@0|) (not (< |i@0| (/ |N@0| 2))) (not (forall ((x@0 Int)) (=> (and (<= 0 |x@0|) (< |x@0| (/ |N@0| 2))) (= (select |A@0| |x@0|) (select |A@0| (- (- |N@0| |x@0|) 1))))))) false)))
(check-sat)